28709.0
1 0 1 0 1 0 1 0 0 0 1 0 1 1 1 0 1 0 1 1 1 0 0 1 1 1 0 1 1 0 
19 61 81 98 105 129 151 153 176 188 

2 4 6 29 47 87 94 126 145 156 169 175 180 190 

10 28 32 43 60 84 104 106 111 124 167 174 178 

35 42 55 86 91 97 192 193 



24 80 133 139 162 171 177 179 185 198 

5 71 113 114 127 140 142 149 184 195 
12 13 16 46 64 85 95 109 136 137 158 159 160 168 
49 67 118 120 135 173 

21 33 39 51 53 79 101 125 147 157 181 189 191 197 

0 8 15 20 25 40 58 62 70 103 194 196 
1 27 30 31 45 48 72 110 123 128 172 183 199 
17 36 37 41 44 54 57 63 73 76 78 82 115 119 154 


22 66 74 75 77 134 152 164 166 170 187 
23 38 50 52 107 131 146 150 163 182 
56 59 65 69 83 89 92 93 102 117 121 132 143 144 

3 7 18 26 34 88 108 112 141 148 161 165 
9 11 14 68 90 96 99 100 116 122 130 138 155 186 

